(set-logic QF_SLAH)

(declare-datatypes ((data_t 0)) (((c_data_t (sz Int)))))

(declare-heap (Int data_t))

(define-fun hck ((?x Int) (?y Int) (?v Int)) Bool
	(and
		(>= (- ?y ?x) 2) (<= (- ?y ?x) ?v)
		(sep (pto ?x (c_data_t (- ?y ?x))) (blk (+ ?x 1) ?y))
))

(define-fun-rec hls ((?x Int) (?y Int) (?v Int)) Bool
	(or
		(and (= ?x ?y) (_ emp Int data_t))
		(exists ((?w Int)) (sep (hck ?x ?w ?v) (hls ?w ?y ?v)))
))

(declare-const x0 Int)
(declare-const x1 Int)
(declare-const v0 Int)
(declare-const x2 Int)
(declare-const x3 Int)
(declare-const x4 Int)
(declare-const x5 Int)
(declare-const x6 Int)
(declare-const x7 Int)
(declare-const x8 Int)
(declare-const x9 Int)
(declare-const x10 Int)
(declare-const x11 Int)
(declare-const v10 Int)
(declare-const x12 Int)
(declare-const x13 Int)
(declare-const v12 Int)
(declare-const x14 Int)
(declare-const x15 Int)
(declare-const x16 Int)
(declare-const x17 Int)
(declare-const x18 Int)
(declare-const x19 Int)
(declare-const x20 Int)
(declare-const x21 Int)
(declare-const x22 Int)
(declare-const x23 Int)
(declare-const v22 Int)
(declare-const x24 Int)
(declare-const x25 Int)
(declare-const v24 Int)
(declare-const x26 Int)
(declare-const x27 Int)
(declare-const x28 Int)
(declare-const x29 Int)
(declare-const v28 Int)
(declare-const x30 Int)
(declare-const x31 Int)
(declare-const x32 Int)
(declare-const x33 Int)
(declare-const v32 Int)
(declare-const x34 Int)
(declare-const x35 Int)
(declare-const x36 Int)
(declare-const x37 Int)
(declare-const x38 Int)
(declare-const x39 Int)
(declare-const x40 Int)
(declare-const x41 Int)
(declare-const x42 Int)
(declare-const x43 Int)
(declare-const x44 Int)
(declare-const x45 Int)
(declare-const v44 Int)
(declare-const x46 Int)
(declare-const x47 Int)
(declare-const x48 Int)
(declare-const x49 Int)
(declare-const x50 Int)
(declare-const x51 Int)
(declare-const x52 Int)
(declare-const x53 Int)
(declare-const v52 Int)
(declare-const x54 Int)
(declare-const x55 Int)
(declare-const v54 Int)
(declare-const x56 Int)
(declare-const x57 Int)
(declare-const x58 Int)
(declare-const x59 Int)
(declare-const x60 Int)
(declare-const x61 Int)
(declare-const v60 Int)
(declare-const x62 Int)
(declare-const x63 Int)
(declare-const x64 Int)
(declare-const x65 Int)
(declare-const v64 Int)
(declare-const x66 Int)
(declare-const x67 Int)
(declare-const v66 Int)
(declare-const x68 Int)
(declare-const x69 Int)
(declare-const x70 Int)
(declare-const x71 Int)
(declare-const x72 Int)
(declare-const x73 Int)
(declare-const v72 Int)
(declare-const x74 Int)
(declare-const x75 Int)
(declare-const v74 Int)
(declare-const x76 Int)
(declare-const x77 Int)
(declare-const v76 Int)
(declare-const x78 Int)
(declare-const x79 Int)
(declare-const x80 Int)
(declare-const x81 Int)
(declare-const x82 Int)
(declare-const x83 Int)
(declare-const x84 Int)
(declare-const x85 Int)
(declare-const x86 Int)
(declare-const x87 Int)
(declare-const v86 Int)
(declare-const x88 Int)
(declare-const x89 Int)
(declare-const x90 Int)
(declare-const x91 Int)
(declare-const x92 Int)
(declare-const x93 Int)
(declare-const x94 Int)
(declare-const x95 Int)
(declare-const x96 Int)
(declare-const x97 Int)
(declare-const v96 Int)
(declare-const x98 Int)
(declare-const x99 Int)
(declare-const v98 Int)
(declare-const x100 Int)
(declare-const x101 Int)
(declare-const v100 Int)
(declare-const x102 Int)
(declare-const x103 Int)
(declare-const v102 Int)
(declare-const x104 Int)
(declare-const x105 Int)
(declare-const x106 Int)
(declare-const x107 Int)
(declare-const x108 Int)
(declare-const x109 Int)
(declare-const v108 Int)

(assert(and
(distinct x90 x25) (< x11 x86) (distinct x68 x81) (< x90 x14) (< x80 x86) (distinct x52 x38) (= x5 x38) (distinct x60 x57) (< x63 x8) (= x8 x51) (distinct x53 x84) (distinct x82 x81) (= x28 x25) (= x65 x64) (= x49 x34) (distinct x104 x78) (distinct x71 x90) 
(sep
(hls x0 x1 v0)
(pto x2 (c_data_t x3))
(pto x4 (c_data_t x5))
(blk x6 x7)
(blk x8 x9)
(hls x10 x11 v10)
(hls x12 x13 v12)
(blk x14 x15)
(pto x16 (c_data_t x17))
(pto x18 (c_data_t x19))
(pto x20 (c_data_t x21))
(hls x22 x23 v22)
(hls x24 x25 v24)
(blk x26 x27)
(hls x28 x29 v28)
(blk x30 x31)
(hls x32 x33 v32)
(blk x34 x35)
(pto x36 (c_data_t x37))
(pto x38 (c_data_t x39))
(blk x40 x41)
(pto x42 (c_data_t x43))
(hls x44 x45 v44)
(blk x46 x47)
(pto x48 (c_data_t x49))
(blk x50 x51)
(hls x52 x53 v52)
(hls x54 x55 v54)
(blk x56 x57)
(pto x58 (c_data_t x59))
(hls x60 x61 v60)
(blk x62 x63)
(hls x64 x65 v64)
(hls x66 x67 v66)
(blk x68 x69)
(blk x70 x71)
(hls x72 x73 v72)
(hls x74 x75 v74)
(hls x76 x77 v76)
(blk x78 x79)
(pto x80 (c_data_t x81))
(pto x82 (c_data_t x83))
(pto x84 (c_data_t x85))
(hls x86 x87 v86)
(blk x88 x89)
(blk x90 x91)
(pto x92 (c_data_t x93))
(pto x94 (c_data_t x95))
(hls x96 x97 v96)
(hls x98 x99 v98)
(hls x100 x101 v100)
(hls x102 x103 v102)
(blk x104 x105)
(blk x106 x107)
(hls x108 x109 v108)
)))

(check-sat)